Automatic mesh
0              ! number of k-points = 0 ->automatic generation scheme
Monkhorst-pack
 1   1   1
 0   0   0
