Ta                                      
   1.00000000000000     
    11.3205611480242219    0.0469910161131424    0.0000000000000000
     0.0742626390469981   15.1739113404476136    0.0000000000000000
     0.0000000000000000    0.0000000000000000   13.5171878441001265
   Ta
   144
Direct
  0.0000000000000000  0.0000000000000000 -0.0000000000000000
  0.6666666666666643  0.8333333333333357  0.3333333333333357
  0.5000000000000000  0.7500000000000000  0.1666666666666643
  0.5833333333333357  0.9166666666666643  0.1666666666666643
  0.6666666666666643  0.5833333333333357  0.1666666666666643
  0.5000000000000000  0.5000000000000000  0.3333333333333357
  0.5833333333333357  0.6666666666666643  0.6666666666666643
  0.5833333333333357  0.6666666666666643  0.3333333333333357
  0.6666666666666643  0.8333333333333357  0.6666666666666643
  0.5833333333333357  0.9166666666666643  0.5000000000000000
  0.6666666666666643  0.5833333333333357  0.5000000000000000
  0.5000000000000000  0.5000000000000000  0.6666666666666643
  0.5833333333333357  0.6666666666666643 -0.0000000000000000
  0.6666666666666643  0.8333333333333357 -0.0000000000000000
  0.5000000000000000  0.7500000000000000  0.8333333333333357
  0.5000000000000000  0.7500000000000000  0.5000000000000000
  0.5833333333333357  0.9166666666666643  0.8333333333333357
  0.5000000000000000  0.5000000000000000 -0.0000000000000000
  0.5833333333333357  0.4166666666666643  0.8333333333333357
  0.6666666666666643  0.3333333333333357  0.3333333333333357
  0.5000000000000000  0.2500000000000000  0.1666666666666643
  0.5833333333333357  0.4166666666666643  0.1666666666666643
  0.6666666666666643  0.0833333333333357  0.1666666666666643
  0.5000000000000000 -0.0000000000000000  0.3333333333333357
  0.5833333333333357  0.1666666666666643  0.6666666666666643
  0.6666666666666643  0.0833333333333357  0.8333333333333357
  0.6666666666666643  0.3333333333333357  0.6666666666666643
  0.5833333333333357  0.4166666666666643  0.5000000000000000
  0.6666666666666643  0.0833333333333357  0.5000000000000000
  0.5000000000000000 -0.0000000000000000  0.6666666666666643
  0.5833333333333357  0.1666666666666643 -0.0000000000000000
  0.6666666666666643  0.3333333333333357  0.0000000000000000
  0.5000000000000000  0.2500000000000000  0.8333333333333357
  0.5000000000000000  0.2500000000000000  0.5000000000000000
  0.5833333333333357  0.1666666666666643  0.3333333333333357
  0.6666666666666643  0.5833333333333357  0.8333333333333357
  0.8333333333333357  0.1666666666666643  0.3333333333333357
  0.9166666666666643  0.8333333333333357  0.3333333333333357
  0.7500000000000000  0.7500000000000000  0.1666666666666643
  0.8333333333333357  0.9166666666666643  0.1666666666666643
  0.9166666666666643  0.5833333333333357  0.1666666666666643
  0.7500000000000000  0.5000000000000000  0.3333333333333357
  0.8333333333333357  0.6666666666666643  0.6666666666666643
  0.8333333333333357  0.6666666666666643  0.3333333333333357
  0.9166666666666643  0.8333333333333357  0.6666666666666643
  0.8333333333333357  0.9166666666666643  0.5000000000000000
  0.9166666666666643  0.5833333333333357  0.5000000000000000
  0.7500000000000000  0.5000000000000000  0.6666666666666643
  0.8333333333333357  0.6666666666666643  0.0000000000000000
  0.9166666666666643  0.8333333333333357 -0.0000000000000000
  0.7500000000000000  0.7500000000000000  0.8333333333333357
  0.7500000000000000  0.7500000000000000  0.5000000000000000
  0.7500000000000000  0.0000000000000000 -0.0000000000000000
  0.7500000000000000  0.5000000000000000 -0.0000000000000000
  0.8333333333333357  0.4166666666666643  0.8333333333333357
  0.9166666666666643  0.3333333333333357  0.3333333333333357
  0.7500000000000000  0.2500000000000000  0.1666666666666643
  0.8333333333333357  0.4166666666666643  0.1666666666666643
  0.9166666666666643  0.0833333333333357  0.1666666666666643
  0.7500000000000000  0.0000000000000000  0.3333333333333357
  0.8333333333333357  0.1666666666666643  0.6666666666666643
  0.9166666666666643  0.0833333333333357  0.8333333333333357
  0.9166666666666643  0.3333333333333357  0.6666666666666643
  0.8333333333333357  0.4166666666666643  0.5000000000000000
  0.9166666666666643  0.0833333333333357  0.5000000000000000
  0.7500000000000000 -0.0000000000000000  0.6666666666666643
  0.8333333333333357  0.1666666666666643 -0.0000000000000000
  0.9166666666666643  0.3333333333333357  0.0000000000000000
  0.7500000000000000  0.2500000000000000  0.8333333333333357
  0.7500000000000000  0.2500000000000000  0.5000000000000000
  0.5000000000000000  0.0000000000000000  0.0000000000000000
  0.4166666666666643  0.5833333333333357  0.8333333333333357
  0.3333333333333357  0.9166666666666643  0.8333333333333357
  0.0833333333333357  0.6666666666666643  0.3333333333333357
  0.1666666666666643  0.8333333333333357  0.3333333333333357
  0.0000000000000000  0.7500000000000000  0.1666666666666643
  0.0833333333333357  0.9166666666666643  0.1666666666666643
  0.1666666666666643  0.5833333333333357  0.1666666666666643
 -0.0000000000000000  0.5000000000000000  0.3333333333333357
 -0.0000000000000000  0.5000000000000000  0.0000000000000000
  0.0833333333333357  0.6666666666666643  0.6666666666666643
 -0.0000000000000000  0.7500000000000000  0.5000000000000000
  0.0833333333333357  0.9166666666666643  0.5000000000000000
  0.1666666666666643  0.5833333333333357  0.5000000000000000
  0.0000000000000000  0.5000000000000000  0.6666666666666643
  0.0833333333333357  0.6666666666666643  0.0000000000000000
  0.1666666666666643  0.8333333333333357  0.0000000000000000
  0.1666666666666643  0.8333333333333357  0.6666666666666643
  0.0000000000000000  0.7500000000000000  0.8333333333333357
  0.1666666666666643  0.0833333333333357  0.8333333333333357
 -0.0000000000000000  0.2500000000000000  0.8333333333333357
  0.0833333333333357  0.1666666666666643  0.3333333333333357
  0.1666666666666643  0.3333333333333357  0.3333333333333357
 -0.0000000000000000  0.2500000000000000  0.1666666666666643
  0.0833333333333357  0.4166666666666643  0.1666666666666643
  0.1666666666666643  0.0833333333333357  0.1666666666666643
 -0.0000000000000000 -0.0000000000000000  0.3333333333333357
  0.0833333333333357  0.4166666666666643  0.8333333333333357
  0.0833333333333357  0.1666666666666643  0.6666666666666643
  0.0000000000000000  0.2500000000000000  0.5000000000000000
  0.0833333333333357  0.4166666666666643  0.5000000000000000
  0.1666666666666643  0.0833333333333357  0.5000000000000000
 -0.0000000000000000 -0.0000000000000000  0.6666666666666643
  0.0833333333333357  0.1666666666666643  0.0000000000000000
  0.1666666666666643  0.3333333333333357  0.0000000000000000
  0.1666666666666643  0.3333333333333357  0.6666666666666643
  0.0833333333333357  0.9166666666666643  0.8333333333333357
  0.1666666666666643  0.5833333333333357  0.8333333333333357
  0.2500000000000000  0.0000000000000000 -0.0000000000000000
  0.4166666666666643  0.8333333333333357  0.3333333333333357
  0.2500000000000000  0.7500000000000000  0.1666666666666643
  0.3333333333333357  0.9166666666666643  0.1666666666666643
  0.4166666666666643  0.5833333333333357  0.1666666666666643
  0.2500000000000000  0.5000000000000000  0.3333333333333357
  0.3333333333333357  0.6666666666666643  0.6666666666666643
  0.3333333333333357  0.6666666666666643  0.3333333333333357
  0.4166666666666643  0.8333333333333357  0.6666666666666643
  0.3333333333333357  0.9166666666666643  0.5000000000000000
  0.4166666666666643  0.5833333333333357  0.5000000000000000
  0.2500000000000000  0.5000000000000000  0.6666666666666643
  0.3333333333333357  0.6666666666666643  0.0000000000000000
  0.4166666666666643  0.8333333333333357  0.0000000000000000
  0.2500000000000000  0.7500000000000000  0.8333333333333357
  0.2500000000000000  0.7500000000000000  0.5000000000000000
  0.2500000000000000  0.5000000000000000  0.0000000000000000
  0.4166666666666643  0.0833333333333357  0.8333333333333357
  0.3333333333333357  0.4166666666666643  0.8333333333333357
  0.3333333333333357  0.1666666666666643  0.3333333333333357
  0.4166666666666643  0.3333333333333357  0.3333333333333357
  0.2500000000000000  0.2500000000000000  0.1666666666666643
  0.3333333333333357  0.4166666666666643  0.1666666666666643
  0.4166666666666643  0.0833333333333357  0.1666666666666643
  0.2500000000000000 -0.0000000000000000  0.3333333333333357
  0.3333333333333357  0.1666666666666643  0.6666666666666643
  0.4166666666666643  0.3333333333333357  0.6666666666666643
  0.2500000000000000  0.2500000000000000  0.5000000000000000
  0.3333333333333357  0.4166666666666643  0.5000000000000000
  0.4166666666666643  0.0833333333333357  0.5000000000000000
  0.2500000000000000 -0.0000000000000000  0.6666666666666643
  0.3333333333333357  0.1666666666666643  0.0000000000000000
  0.4166666666666643  0.3333333333333357 -0.0000000000000000
  0.2500000000000000  0.2500000000000000  0.8333333333333357
  0.8333333333333357  0.9166666666666643  0.8333333333333357
  0.9166666666666643  0.5833333333333357  0.8333333333333357
 
  0.00000000E+00  0.00000000E+00  0.00000000E+00
  0.00000000E+00  0.00000000E+00  0.00000000E+00
  0.00000000E+00  0.00000000E+00  0.00000000E+00
  0.00000000E+00  0.00000000E+00  0.00000000E+00
  0.00000000E+00  0.00000000E+00  0.00000000E+00
  0.00000000E+00  0.00000000E+00  0.00000000E+00
  0.00000000E+00  0.00000000E+00  0.00000000E+00
  0.00000000E+00  0.00000000E+00  0.00000000E+00
  0.00000000E+00  0.00000000E+00  0.00000000E+00
  0.00000000E+00  0.00000000E+00  0.00000000E+00
  0.00000000E+00  0.00000000E+00  0.00000000E+00
  0.00000000E+00  0.00000000E+00  0.00000000E+00
  0.00000000E+00  0.00000000E+00  0.00000000E+00
  0.00000000E+00  0.00000000E+00  0.00000000E+00
  0.00000000E+00  0.00000000E+00  0.00000000E+00
  0.00000000E+00  0.00000000E+00  0.00000000E+00
  0.00000000E+00  0.00000000E+00  0.00000000E+00
  0.00000000E+00  0.00000000E+00  0.00000000E+00
  0.00000000E+00  0.00000000E+00  0.00000000E+00
  0.00000000E+00  0.00000000E+00  0.00000000E+00
  0.00000000E+00  0.00000000E+00  0.00000000E+00
  0.00000000E+00  0.00000000E+00  0.00000000E+00
  0.00000000E+00  0.00000000E+00  0.00000000E+00
  0.00000000E+00  0.00000000E+00  0.00000000E+00
  0.00000000E+00  0.00000000E+00  0.00000000E+00
  0.00000000E+00  0.00000000E+00  0.00000000E+00
  0.00000000E+00  0.00000000E+00  0.00000000E+00
  0.00000000E+00  0.00000000E+00  0.00000000E+00
  0.00000000E+00  0.00000000E+00  0.00000000E+00
  0.00000000E+00  0.00000000E+00  0.00000000E+00
  0.00000000E+00  0.00000000E+00  0.00000000E+00
  0.00000000E+00  0.00000000E+00  0.00000000E+00
  0.00000000E+00  0.00000000E+00  0.00000000E+00
  0.00000000E+00  0.00000000E+00  0.00000000E+00
  0.00000000E+00  0.00000000E+00  0.00000000E+00
  0.00000000E+00  0.00000000E+00  0.00000000E+00
  0.00000000E+00  0.00000000E+00  0.00000000E+00
  0.00000000E+00  0.00000000E+00  0.00000000E+00
  0.00000000E+00  0.00000000E+00  0.00000000E+00
  0.00000000E+00  0.00000000E+00  0.00000000E+00
  0.00000000E+00  0.00000000E+00  0.00000000E+00
  0.00000000E+00  0.00000000E+00  0.00000000E+00
  0.00000000E+00  0.00000000E+00  0.00000000E+00
  0.00000000E+00  0.00000000E+00  0.00000000E+00
  0.00000000E+00  0.00000000E+00  0.00000000E+00
  0.00000000E+00  0.00000000E+00  0.00000000E+00
  0.00000000E+00  0.00000000E+00  0.00000000E+00
  0.00000000E+00  0.00000000E+00  0.00000000E+00
  0.00000000E+00  0.00000000E+00  0.00000000E+00
  0.00000000E+00  0.00000000E+00  0.00000000E+00
  0.00000000E+00  0.00000000E+00  0.00000000E+00
  0.00000000E+00  0.00000000E+00  0.00000000E+00
  0.00000000E+00  0.00000000E+00  0.00000000E+00
  0.00000000E+00  0.00000000E+00  0.00000000E+00
  0.00000000E+00  0.00000000E+00  0.00000000E+00
  0.00000000E+00  0.00000000E+00  0.00000000E+00
  0.00000000E+00  0.00000000E+00  0.00000000E+00
  0.00000000E+00  0.00000000E+00  0.00000000E+00
  0.00000000E+00  0.00000000E+00  0.00000000E+00
  0.00000000E+00  0.00000000E+00  0.00000000E+00
  0.00000000E+00  0.00000000E+00  0.00000000E+00
  0.00000000E+00  0.00000000E+00  0.00000000E+00
  0.00000000E+00  0.00000000E+00  0.00000000E+00
  0.00000000E+00  0.00000000E+00  0.00000000E+00
  0.00000000E+00  0.00000000E+00  0.00000000E+00
  0.00000000E+00  0.00000000E+00  0.00000000E+00
  0.00000000E+00  0.00000000E+00  0.00000000E+00
  0.00000000E+00  0.00000000E+00  0.00000000E+00
  0.00000000E+00  0.00000000E+00  0.00000000E+00
  0.00000000E+00  0.00000000E+00  0.00000000E+00
  0.00000000E+00  0.00000000E+00  0.00000000E+00
  0.00000000E+00  0.00000000E+00  0.00000000E+00
  0.00000000E+00  0.00000000E+00  0.00000000E+00
  0.00000000E+00  0.00000000E+00  0.00000000E+00
  0.00000000E+00  0.00000000E+00  0.00000000E+00
  0.00000000E+00  0.00000000E+00  0.00000000E+00
  0.00000000E+00  0.00000000E+00  0.00000000E+00
  0.00000000E+00  0.00000000E+00  0.00000000E+00
  0.00000000E+00  0.00000000E+00  0.00000000E+00
  0.00000000E+00  0.00000000E+00  0.00000000E+00
  0.00000000E+00  0.00000000E+00  0.00000000E+00
  0.00000000E+00  0.00000000E+00  0.00000000E+00
  0.00000000E+00  0.00000000E+00  0.00000000E+00
  0.00000000E+00  0.00000000E+00  0.00000000E+00
  0.00000000E+00  0.00000000E+00  0.00000000E+00
  0.00000000E+00  0.00000000E+00  0.00000000E+00
  0.00000000E+00  0.00000000E+00  0.00000000E+00
  0.00000000E+00  0.00000000E+00  0.00000000E+00
  0.00000000E+00  0.00000000E+00  0.00000000E+00
  0.00000000E+00  0.00000000E+00  0.00000000E+00
  0.00000000E+00  0.00000000E+00  0.00000000E+00
  0.00000000E+00  0.00000000E+00  0.00000000E+00
  0.00000000E+00  0.00000000E+00  0.00000000E+00
  0.00000000E+00  0.00000000E+00  0.00000000E+00
  0.00000000E+00  0.00000000E+00  0.00000000E+00
  0.00000000E+00  0.00000000E+00  0.00000000E+00
  0.00000000E+00  0.00000000E+00  0.00000000E+00
  0.00000000E+00  0.00000000E+00  0.00000000E+00
  0.00000000E+00  0.00000000E+00  0.00000000E+00
  0.00000000E+00  0.00000000E+00  0.00000000E+00
  0.00000000E+00  0.00000000E+00  0.00000000E+00
  0.00000000E+00  0.00000000E+00  0.00000000E+00
  0.00000000E+00  0.00000000E+00  0.00000000E+00
  0.00000000E+00  0.00000000E+00  0.00000000E+00
  0.00000000E+00  0.00000000E+00  0.00000000E+00
  0.00000000E+00  0.00000000E+00  0.00000000E+00
  0.00000000E+00  0.00000000E+00  0.00000000E+00
  0.00000000E+00  0.00000000E+00  0.00000000E+00
  0.00000000E+00  0.00000000E+00  0.00000000E+00
  0.00000000E+00  0.00000000E+00  0.00000000E+00
  0.00000000E+00  0.00000000E+00  0.00000000E+00
  0.00000000E+00  0.00000000E+00  0.00000000E+00
  0.00000000E+00  0.00000000E+00  0.00000000E+00
  0.00000000E+00  0.00000000E+00  0.00000000E+00
  0.00000000E+00  0.00000000E+00  0.00000000E+00
  0.00000000E+00  0.00000000E+00  0.00000000E+00
  0.00000000E+00  0.00000000E+00  0.00000000E+00
  0.00000000E+00  0.00000000E+00  0.00000000E+00
  0.00000000E+00  0.00000000E+00  0.00000000E+00
  0.00000000E+00  0.00000000E+00  0.00000000E+00
  0.00000000E+00  0.00000000E+00  0.00000000E+00
  0.00000000E+00  0.00000000E+00  0.00000000E+00
  0.00000000E+00  0.00000000E+00  0.00000000E+00
  0.00000000E+00  0.00000000E+00  0.00000000E+00
  0.00000000E+00  0.00000000E+00  0.00000000E+00
  0.00000000E+00  0.00000000E+00  0.00000000E+00
  0.00000000E+00  0.00000000E+00  0.00000000E+00
  0.00000000E+00  0.00000000E+00  0.00000000E+00
  0.00000000E+00  0.00000000E+00  0.00000000E+00
  0.00000000E+00  0.00000000E+00  0.00000000E+00
  0.00000000E+00  0.00000000E+00  0.00000000E+00
  0.00000000E+00  0.00000000E+00  0.00000000E+00
  0.00000000E+00  0.00000000E+00  0.00000000E+00
  0.00000000E+00  0.00000000E+00  0.00000000E+00
  0.00000000E+00  0.00000000E+00  0.00000000E+00
  0.00000000E+00  0.00000000E+00  0.00000000E+00
  0.00000000E+00  0.00000000E+00  0.00000000E+00
  0.00000000E+00  0.00000000E+00  0.00000000E+00
  0.00000000E+00  0.00000000E+00  0.00000000E+00
  0.00000000E+00  0.00000000E+00  0.00000000E+00
  0.00000000E+00  0.00000000E+00  0.00000000E+00
  0.00000000E+00  0.00000000E+00  0.00000000E+00
  0.00000000E+00  0.00000000E+00  0.00000000E+00
  0.00000000E+00  0.00000000E+00  0.00000000E+00
